Version identifier: 20.1.0.0 | 2020-11-10 | 9bedb6d68
Found incumbent of value 0.000000 after 0.00 sec. (0.00 ticks)
Tried aggregator 2 times.
MIP Presolve eliminated 93 rows and 32 columns.
MIP Presolve modified 12 coefficients.
Aggregator did 38 substitutions.
Reduced MIP has 40 rows, 43 columns, and 130 nonzeros.
Reduced MIP has 29 binaries, 0 generals, 0 SOSs, and 14 indicators.
Presolve time = 0.02 sec. (0.32 ticks)
Probing fixed 0 vars, tightened 7 bounds.
Probing changed sense of 7 constraints.
Probing time = 0.00 sec. (0.09 ticks)
Tried aggregator 1 time.
MIP Presolve eliminated 29 rows and 32 columns.
MIP Presolve modified 34 coefficients.
Reduced MIP has 11 rows, 11 columns, and 42 nonzeros.
Reduced MIP has 11 binaries, 0 generals, 0 SOSs, and 0 indicators.
Presolve time = 0.00 sec. (0.09 ticks)
Probing time = 0.00 sec. (0.01 ticks)
Tried aggregator 1 time.
MIP Presolve eliminated 1 rows and 0 columns.
MIP Presolve modified 1 coefficients.
Reduced MIP has 10 rows, 11 columns, and 40 nonzeros.
Reduced MIP has 11 binaries, 0 generals, 0 SOSs, and 0 indicators.
Presolve time = 0.00 sec. (0.03 ticks)
